webassembly/ejemplos_dzn/11/folder11_json_20.dzn
TERM = { '.', 's(2)', 's(5)', 's(4)', 'in_1', 'local_0', 's(9)', 'local_1', 's(8)', 's(6)', 's(1)', 's(0)', 's(7)', 's(3)', 'in_0'};
null = '.';
s = 11;
n = 10;
ndeps = 9;
max_registers_sz = 4;
NR = 1;
registers = [|'local_0', 'local_1'|];
dependencies = [|'call[function_index(0)]_0', 'i32.load8_u_2', |'call[function_index(0)]_0', 'i32.load8_s_3', |'call[function_index(0)]_0', 'i32.load16_s_4', |'i32.load8_u_2', 'i32.store8_5', |'i32.load8_s_3', 'i32.store8_5', |'i32.load16_s_4', 'i32.store8_5', |'i32.store8_5', 'i32.load16_u_6', |'i32.load16_u_6', 'call[function_index(1)]_7', |'call[function_index(1)]_7', 'i32.load_10'|];
GET_ENUM = { GET1, GET2, GET3, GET4, GET5};
SET_ENUM = { SET1, SET2, SET3, SET4, SET5};
TEE_ENUM = { TEE1, TEE2, TEE3, TEE4, TEE5};
N = 9;
OP = { 'call[function_index(0)]_0', 'call[function_index(1)]_7', 'i32.load8_u_2', 'i32.load8_s_3', 'i32.load16_s_4', 'i32.store8_5', 'i32.load16_u_6', 'i32.load_10', 'local.get_0' };
in_ops = [1, 3, 1, 1, 1, 2, 1, 1, 0 ];
out_ops = [3, 2, 1, 1, 1, 0, 1, 1, 1 ];
in1 = ['in_0', 's(6)', 'local_1', 's(3)', 's(4)', 's(5)', 's(1)', 's(8)', '.' ];
in2 = ['.', 's(0)', '.', '.', '.', 's(2)', '.', '.', '.' ];
in3 = ['.', 'in_1', '.', '.', '.', '.', '.', '.', '.' ];
out1 = ['s(2)', 's(8)', 's(3)', 's(4)', 's(5)', '.', 's(6)', 's(9)', 'local_1' ];
out2 = ['s(1)', 's(7)', '.', '.', '.', '.', '.', '.', '.' ];
out3 = ['s(0)', '.', '.', '.', '.', '.', '.', '.', '.' ];
comm = [false, false, false, false, false, false, false, false, false ];
gas = [1, 1, 1, 1, 1, 1, 1, 1, 1 ];
sz = [1, 1, 1, 1, 1, 1, 1, 1, 1 ];
stor = [true, true, false, false, false, true, false, false, false ];
lb = [ 1, 1, 1, 1, 1, 1, 1, 1, 1 ];
ub = [ 11, 11, 11, 11, 11, 11, 11, 11, 11 ];
startstack = [ 'in_0', 'in_1', null, null, null, null, null, null, null, null ];
endstack = [ 's(9)', 's(7)', null, null, null, null, null, null, null, null ];
