webassembly/ejemplos_results/folder11_json_20.txt
value = 11;
fgas = [1, 1, 1, 1, 1, 1, 1, 1, 1, 1, 1];
fsize = [1, 1, 1, 1, 1, 1, 1, 1, 1, 1, 1];
states = 
[|    in_0,   in_1,    '.',    '.',  '.', '.', '.', '.', '.',  '.'
 |  's(2)', 's(1)', 's(0)',   in_1,  '.', '.', '.', '.', '.',  '.'
 | local_1,   in_0, 's(1)', 's(0)', in_1, '.', '.', '.', '.',  '.'
 |  's(3)',   in_0, 's(1)', 's(0)', in_1, '.', '.', '.', '.',  '.'
 |  's(4)',   in_0, 's(1)', 's(0)', in_1, '.', '.', '.', '.',  '.'
 |  's(5)', 's(2)', 's(1)', 's(0)', in_1, '.', '.', '.', '.',  '.'
 |  's(1)', 's(0)',   in_1,    '.',  '.', '.', '.', '.', '.',  '.'
 |  's(6)', 's(0)',   in_1,    '.',  '.', '.', '.', '.', '.',  '.'
 |  's(8)', 's(7)',    '.',    '.',  '.', '.', '.', '.', '.', in_0
 |  's(9)', 's(7)',    '.',    '.',  '.', '.', '.', '.', '.', in_0
 | local_1, 's(9)', 's(7)',    '.',  '.', '.', '.', '.', '.',  '.'
 |  's(9)', 's(7)',    '.',    '.',  '.', '.', '.', '.', '.',  '.'
 |];
register_states = 
[| local_0, '.', '.', '.', '.'
 | local_0, '.', '.', '.', '.'
 | local_0, '.', '.', '.', '.'
 | local_0, '.', '.', '.', '.'
 | local_0, '.', '.', '.', '.'
 | local_0, '.', '.', '.', '.'
 | local_0, '.', '.', '.', '.'
 | local_0, '.', '.', '.', '.'
 | local_0, '.', '.', '.', '.'
 | local_0, '.', '.', '.', '.'
 | local_0, '.', '.', '.', '.'
 | local_1, '.', '.', '.', '.'
 |];
program = [O('call[function_index(0)]_0'), O('local.get_0'), O('i32.load8_u_2'), O('i32.load8_s_3'), O('i32.load16_s_4'), O('i32.store8_5'), O('i32.load16_u_6'), O('call[function_index(1)]_7'), O('i32.load_10'), O('local.get_0'), S(SET1)];
% time elapsed: 0.17 s
----------
==========
% time elapsed: 0.19 s
% [value > 10]
